##------CONJUNTOS
set D := D1 D2 D3 D4;
set K := 1 2;

set I := F1 F2 F3 F4 F5 F6 F7 F8 F9 F10 F11 F12;

# F1 -> Excel 2297, Comuna 22
# F2 -> Excel 2296, Comuna 22
# F3 -> Excel 2299, Comuna 22
# F4 -> Excel 599, Comuna 5
# F5 -> Excel 503, Comuna 5
# F6 -> Excel 506, Comuna 5
# F7 -> Excel 1406, Comuna 14
# F8 -> Excel 1401, Comuna 14
# F9 -> Excel 1496, Comuna 14
# F10 -> Excel 101, Comuna 1
# F11 -> Excel 199, Comuna 1
# F12 -> Excel 196, Comuna 1

# Clústeres
set C := C1 C2 C3 C4;
set IC[C1] := F1 F2 F3;
set IC[C2] := F4 F5 F6;
set IC[C3] := F7 F8 F9;
set IC[C4] := F10 F11 F12;

# Número de vehículos por tipo y depósito
set R[D1,1] := V1 V2 V3 V4;
set R[D1,2] := K1 K2;
set R[D2,1] := V5 V6 V7 V8;
set R[D2,2] := K3;
set R[D3,1] := V9 V10 V11 V12;
set R[D3,2] := K4;
set R[D4,1] := V13 V14 V15 V16;
set R[D4,2] := K5 K6;

##------PARAMETROS GLOBALES
param Vel := 25;

##------CAPACIDAD DE VEHÍCULOS (agentes que pueden transportar)
param q :=
1 5
2 10
;

##------POLICÍAS DISPONIBLES en cada depósito
param h :=
D1 40
D2 30
D3 30
D4 40
;

##------VEHÍCULOS DISPONIBLES por tipo y depósito
param v:
	1	2 :=
D1	4	2
D2	4	1
D3	4	1
D4	4	2
;

##-----DISTANCIAS ENTRE NODOS [km]
param dist:
	F1	F2	F3	F4	F5	F6	F7	F8	F9	F10	F11	F12	D1	D2	D3	D4 :=
F1	0	4.95	3.26	14.78	15.76	16.65	10.73	9.99	11.59	13.24	13.72	15.07	11.33	15.88	8.44	10.65
F2	4.95	0	4.6	18.3	19.28	20.1	14.65	13.91	15.47	15.18	15.63	16.24	14.2	19.39	10.23	14.53
F3	3.26	4.6	0	14.71	15.69	16.49	11.46	10.74	12.17	11.79	12.26	13.25	10.55	15.8	6.84	11.25
F4	14.78	18.3	14.71	0	1.93	2.87	6.44	6.94	5.44	9.28	9.41	12.41	6.23	2.05	10.89	6.07
F5	15.76	19.28	15.69	1.93	0	2.0	7.24	7.79	6.21	9.84	9.94	12.9	7.05	1.13	11.77	6.91
F6	16.65	20.1	16.49	2.87	2.0	0	8.29	8.83	7.26	9.93	9.96	12.84	7.53	1.82	12.3	7.95
F7	10.73	14.65	11.46	6.44	7.24	8.29	0	1.69	2.0	11.38	11.73	14.6	7.48	7.42	10.13	1.52
F8	9.99	13.91	10.74	6.94	7.79	8.83	1.69	0	2.66	11.23	11.61	14.41	7.36	7.96	9.65	1.82
F9	11.59	15.47	12.17	5.44	6.21	7.26	2.0	2.66	0	11.03	11.36	14.3	7.14	6.38	10.31	1.89
F10	13.24	15.18	11.79	9.28	9.84	9.93	11.38	11.23	11.03	0	1.43	4.22	4.85	9.81	5.91	10.81
F11	13.72	15.63	12.26	9.41	9.94	9.96	11.73	11.61	11.36	1.43	0	3.98	5.2	9.89	6.37	11.16
F12	15.07	16.24	13.25	12.41	12.9	12.84	14.6	14.41	14.3	4.22	3.98	0	8.1	12.84	7.62	14.03
D1	11.33	14.2	10.55	6.23	7.05	7.53	7.48	7.36	7.14	4.85	5.2	8.1	0	7.09	5.73	6.9
D2	15.88	19.39	15.8	2.05	1.13	1.82	7.42	7.96	6.38	9.81	9.89	12.84	7.09	0	11.82	7.08
D3	8.44	10.23	6.84	10.89	11.77	12.3	10.13	9.65	10.31	5.91	6.37	7.62	5.73	11.82	0	9.66
D4	10.65	14.53	11.25	6.07	6.91	7.95	1.52	1.82	1.89	10.81	11.16	14.03	6.9	7.08	9.66	0
;

#### DEMANDA DE POLICÍAS (por nodo i)
param dem :=
F1 25
F2 50
F3 125
F4 50
F5 100
F6 25
F7 50
F8 50
F9 50
F10 25
F11 50
F12 100
;

#### DEMANDA DE VEHÍCULOS (por tipo)
param mu:
    1   2 :=
 F1  0  1
 F2  0  1
 F3  0  3
 F4  0  1
 F5  0  2
 F6  0  1
 F7  0  2
 F8  0  2
 F9  0  1
 F10  0  1
 F11  0  1
 F12  0  3
;

#### TIEMPOS DE SERVICIO [horas]
param s :=
F1 0.42
F2 0.91
F3 2.11
F4 0.81
F5 1.53
F6 0.36
F7 0.86
F8 0.78
F9 0.90
F10 0.49
F11 0.78
F12 1.83
;

#### VENTANAS DE TIEMPO [horas]
param alpha :=
F1 12
F2 7
F3 6
F4 6
F5 13
F6 7
F7 12
F8 9
F9 14
F10 11
F11 14
F12 13
;

param beta :=
F1 16
F2 14
F3 16
F4 14
F5 17
F6 13
F7 22
F8 19
F9 18
F10 18
F11 21
F12 23
;

#### PRIORIDAD DE LOS NODOS
param P :=
F1 0.126
F2 0.099
F3 0.043
F4 0.196
F5 0.353
F6 0.178
F7 0.542
F8 0.480
F9 0.492
F10 0.352
F11 0.331
F12 0.305
;

